#P b3lyp/6-31G(d) OPT=Tight

H4 C1

0 1
C
H 1 B1
H 1 B2 2 A2
H 1 B3 2 A3 3 D3
H 1 B4 4 A4 3 D4

B1=1.092156
B2=1.092183
A2=109.470302
B3=1.092198
A3=109.471044
D3=-120.005896
B4=1.092192
A4=109.466753
D4=-119.997645




